num_variables= 13;
max_domain = 198;
domains = [198,198,198,198,198,198,198,198,198,198,198,198,198];
top = 100000;
num_constraints1= 13;
max_constraints1 = 5148;
max_costs1 = 100000;
num_constraints2= 78;
max_constraints2 = 9173736;
max_costs2 = 100000;
func1x = [12,9,1,11,6,4,3,13,10,7,5,8,2];
num_tuples1 = [198,198,198,198,198,198,198,198,198,198,198,198,198];
cum_tuples1 = [0,198,396,594,792,990,1188,1386,1584,1782,1980,2178,2376];
costs1 = costs1 = [71, 0, 73, 1, 73, 2, 74, 3, 73, 4, 74, 5, 74, 6, 74, 7, 87, 8, 100000, 9, 100000, 10, 100000, 11, 74, 12, 73, 13, 73, 14]; // array too long to display, dimensions: (5148)

func2x = [2,2,1,2,11,4,3,2,9,2,4,3,6,8,8,4,7,1,1,3,7,5,1,5,6,5,5,1,1,1,10,6,6,5,10,6,9,2,3,2,4,2,3,5,6,1,1,1,1,4,1,7,7,9,8,8,12,9,7,4,2,8,3,4,4,3,3,10,2,4,3,6,5,11,2,5,7,3];
func2y = [11,12,7,7,13,12,6,9,10,5,9,11,11,10,11,6,13,6,11,12,12,8,5,13,12,10,11,2,12,8,12,7,13,9,13,10,12,4,7,10,8,8,4,6,9,13,10,9,3,11,4,10,8,13,9,13,13,11,9,5,3,12,13,13,7,9,8,11,13,10,5,8,7,12,6,12,11,10];
num_tuples2 = [39204,39204,39204,39204,39204,39204,39204,39204,39204,39204,39204,39204,39204,39204,39204,39204,39204,39204,39204,39204,39204,39204,39204,39204,39204,39204,39204,39204,39204,39204,39204,39204,39204,39204,39204,39204,39204,39204,39204,39204,39204,39204,39204,39204,39204,39204,39204,39204,39204,39204,39204,39204,39204,39204,39204,39204,39204,39204,39204,39204,39204,39204,39204,39204,39204,39204,39204,39204,39204,39204,39204,39204,39204,39204,39204,39204,39204,39204];
cum_tuples2 = cum_tuples2 = [0,39204,78408,117612,156816,196020,235224,274428,3... ]; // array too long to display, dimensions: (78)

costs2 = costs2 = [37, 151, 131, 37, 182, 148, 37, 51, 79, 100000, 104, 143, 37, 157, 37, 37, 190, 14, 37, 106, 189, 100000, 39, 80, 37, 137, 86, 37, 144, 190]; // array too long to display, dimensions: (9173736)

